NAME : graph4
COMMENT : H Algorithm Solution by Oscar Riveros [http://twitter.com/maxtuno]
TYPE : TOUR
DIMENSION : 84
TOUR_SECTION
45
50
68
8
64
81
52
63
83
6
47
16
67
33
84
66
60
39
79
61
78
9
7
51
40
80
26
49
56
77
76
46
23
21
32
19
12
58
43
1
82
28
18
11
41
44
3
15
57
73
24
5
4
54
22
38
14
70
20
13
17
75
48
42
69
2
10
31
62
27
71
35
74
30
34
25
36
59
37
55
53
65
29
72
-1
EOF
